925103
174,104,201,98,189,218,140,127,221,40,76,157,148,203,171,167,81,1,114,181,60,147,130,122,24,79,131,187,123,84,172,180,135,118,192,194,153,199,64,163,213,200,197,113,83,28,75,138,166,78,94,56,173,142,10,196,57,58,220,51,92,212,124,47,133,18,226,45,193,29,14,59,144,143,116,62,6,134,139,71,0,35,228,161,73,82,156,66,162,206,38,31,117,70,48,146,126,42,198,30,158,68,2,137,136,63,43,175,222,16,96,7,13,9,205,85,69,208,217,50,176,22,207,184,188,177,15,225,121,151,112,159,97,41,72,125,190,109,119,164,46,224,110,12,219,155,4,210,25,90,100,115,183,106,160,204,33,178,191,88,165,195,27,214,74,77,150,107,49,93,154,132,111,168,101,34,86,61,26,39,80,129,54,36,19,182,209,21,95,8,67,5,211,229,44,103,37,202,223,128,32,216,20,3,152,141,169,89,170,185,149,108,227,87,145,11,186,102,179,120,105,65,23,215,99,52,91,17,55,53
